HUN,8,6,681
4,30,3,23,5,27,2,29,0,29,1,24
1,22,4,26,5,23,0,26,2,30,3,25
1,26,2,28,4,28,3,27,5,23,0,25
1,22,0,28,2,25,3,29,5,22,4,30
4,30,3,29,1,27,5,24,0,29,2,27
4,24,5,28,3,22,1,22,0,24,2,23
2,22,3,29,1,25,0,29,5,27,4,24
4,21,5,21,2,22,1,29,0,25,3,28
